0
59
22
0
46
0
24
35
0
15
50
27
8
12
21
40
13
30
18
24
14
0
27
30
37
0
0
0
0
19
0
12
46
11
9
19
19
0
25
19
76
16
0
0
14
32
33
12
14
13
8
11
23
10
12
0
22
0
34
24
0
10
21
16
12
0
19
0
15
0
0
22
24
0
22
0
32
0
18
26
0
0
10
40
78
29
0
9
0
26
33
0
8
19
0
0
25
9
0
32
